(set-logic QF_S)
(declare-fun var0 () String)
(declare-fun var1 () Int)
(declare-fun var2 () String)
(declare-fun var3 () Int)
(declare-fun var4 () String)
(declare-fun var5 () Int)
(declare-fun var6 () String)
(assert (str.suffixof var0 ";uG)YZG9LD"))
(assert (>= 6 var1))
(assert (str.contains (str.substr var2 26 var3) (str.substr var4 0 var5)))
(assert (str.contains var6 var2))
(check-sat)